;test regex ([0]{1}[6]{1}[-\s]*[1-9]{1}[\s]*([0-9]{1}[\s]*){7})|([0]{1}[1-9]{1}[0-9]{1}[0-9]{1}[-\s]*[1-9]{1}[\s]*([0-9]{1}[\s]*){5})|([0]{1}[1-9]{1}[0-9]{1}[-\s]*[1-9]{1}[\s]*([0-9]{1}[\s]*){6})
(declare-const X String)
(assert (str.in_re X (re.union (re.union (re.++ ((_ re.loop 1 1) (str.to_re "0")) (re.++ ((_ re.loop 1 1) (str.to_re "6")) (re.++ (re.* (re.union (str.to_re "-") (re.union (str.to_re "\u{20}") (re.union (str.to_re "\u{0b}") (re.union (str.to_re "\u{0a}") (re.union (str.to_re "\u{0d}") (re.union (str.to_re "\u{09}") (str.to_re "\u{0c}")))))))) (re.++ ((_ re.loop 1 1) (re.range "1" "9")) (re.++ (re.* (re.union (str.to_re "\u{20}") (re.union (str.to_re "\u{0b}") (re.union (str.to_re "\u{0a}") (re.union (str.to_re "\u{0d}") (re.union (str.to_re "\u{09}") (str.to_re "\u{0c}"))))))) ((_ re.loop 7 7) (re.++ ((_ re.loop 1 1) (re.range "0" "9")) (re.* (re.union (str.to_re "\u{20}") (re.union (str.to_re "\u{0b}") (re.union (str.to_re "\u{0a}") (re.union (str.to_re "\u{0d}") (re.union (str.to_re "\u{09}") (str.to_re "\u{0c}")))))))))))))) (re.++ ((_ re.loop 1 1) (str.to_re "0")) (re.++ ((_ re.loop 1 1) (re.range "1" "9")) (re.++ ((_ re.loop 1 1) (re.range "0" "9")) (re.++ ((_ re.loop 1 1) (re.range "0" "9")) (re.++ (re.* (re.union (str.to_re "-") (re.union (str.to_re "\u{20}") (re.union (str.to_re "\u{0b}") (re.union (str.to_re "\u{0a}") (re.union (str.to_re "\u{0d}") (re.union (str.to_re "\u{09}") (str.to_re "\u{0c}")))))))) (re.++ ((_ re.loop 1 1) (re.range "1" "9")) (re.++ (re.* (re.union (str.to_re "\u{20}") (re.union (str.to_re "\u{0b}") (re.union (str.to_re "\u{0a}") (re.union (str.to_re "\u{0d}") (re.union (str.to_re "\u{09}") (str.to_re "\u{0c}"))))))) ((_ re.loop 5 5) (re.++ ((_ re.loop 1 1) (re.range "0" "9")) (re.* (re.union (str.to_re "\u{20}") (re.union (str.to_re "\u{0b}") (re.union (str.to_re "\u{0a}") (re.union (str.to_re "\u{0d}") (re.union (str.to_re "\u{09}") (str.to_re "\u{0c}"))))))))))))))))) (re.++ ((_ re.loop 1 1) (str.to_re "0")) (re.++ ((_ re.loop 1 1) (re.range "1" "9")) (re.++ ((_ re.loop 1 1) (re.range "0" "9")) (re.++ (re.* (re.union (str.to_re "-") (re.union (str.to_re "\u{20}") (re.union (str.to_re "\u{0b}") (re.union (str.to_re "\u{0a}") (re.union (str.to_re "\u{0d}") (re.union (str.to_re "\u{09}") (str.to_re "\u{0c}")))))))) (re.++ ((_ re.loop 1 1) (re.range "1" "9")) (re.++ (re.* (re.union (str.to_re "\u{20}") (re.union (str.to_re "\u{0b}") (re.union (str.to_re "\u{0a}") (re.union (str.to_re "\u{0d}") (re.union (str.to_re "\u{09}") (str.to_re "\u{0c}"))))))) ((_ re.loop 6 6) (re.++ ((_ re.loop 1 1) (re.range "0" "9")) (re.* (re.union (str.to_re "\u{20}") (re.union (str.to_re "\u{0b}") (re.union (str.to_re "\u{0a}") (re.union (str.to_re "\u{0d}") (re.union (str.to_re "\u{09}") (str.to_re "\u{0c}"))))))))))))))))))
; sanitize danger characters:  < > ' " &
(assert (not (str.in_re X (re.++ re.all (re.union (str.to_re "\u{3c}") (str.to_re "\u{3e}") (str.to_re "\u{27}") (str.to_re "\u{22}") (str.to_re "\u{26}")) re.all))))
(assert (< 20 (str.len X)))
(check-sat)
(get-model)